networks/zoo_108_2289/zoo_108_2289-lower.txt
Number of groups: 58
Flow 14: {1 29 0} {29 28 0} {28 15 0} {15 69 0} 
Flow 48: {13 40 0} {40 54 0} {54 108 0} 
Flow 57: {2 5 0} {5 9 0} {9 10 0} {10 64 0} 
Flow 125: {3 29 0} {29 14 0} {14 30 0} {30 84 0} 
Flow 173: {4 31 0} {31 85 0} 
Flow 195: {5 2 0} {2 56 0} 
Flow 275: {49 31 0} {31 32 0} 
Flow 281: {6 49 0} {49 38 0} 
Flow 339: {7 49 0} {49 53 0} 
Flow 368: {8 5 0} {5 49 0} {49 13 0} {13 29 0} {29 46 0} {46 100 0} 
Flow 388: {20 18 0} {18 72 0} 
Flow 451: {10 9 0} {9 38 0} {38 92 0} 
Flow 498: {11 19 0} {19 20 0} {20 9 0} {9 49 0} {49 103 0} 
Flow 524: {12 25 0} {25 53 0} {53 34 0} {34 88 0} 
Flow 648: {15 28 0} {28 82 0} 
Flow 668: {16 50 0} {50 29 0} {29 1 0} {1 55 0} 
Flow 705: {16 28 0} {28 13 0} {13 43 0} {43 41 0} {41 95 0} 
Flow 757: {17 43 0} {43 44 0} {44 98 0} 
Flow 783: {18 20 0} {20 22 0} {22 76 0} 
Flow 868: {19 11 0} {11 65 0} 
Flow 920: {21 20 0} {20 74 0} 
Flow 949: {22 20 0} {20 17 0} {17 71 0} 
Flow 997: {23 31 0} {31 24 0} {24 78 0} 
Flow 1075: {24 31 0} {31 33 0} {33 53 0} {53 107 0} 
Flow 1143: {26 25 0} {25 79 0} 
Flow 1148: {53 33 0} {33 87 0} 
Flow 1177: {27 28 0} {28 29 0} {29 83 0} 
Flow 1216: {28 27 0} {27 81 0} 
Flow 1288: {29 31 0} {31 34 0} {34 48 0} {48 102 0} 
Flow 1345: {14 52 0} {52 106 0} 
Flow 1363: {32 50 0} {50 16 0} {16 70 0} 
Flow 1372: {31 29 0} {29 13 0} {13 25 0} {25 26 0} {26 80 0} 
Flow 1389: {32 31 0} {31 14 0} {14 47 0} {47 101 0} 
Flow 1454: {34 53 0} {53 25 0} {25 12 0} {12 66 0} 
Flow 1504: {35 17 0} {17 20 0} {20 19 0} {19 73 0} 
Flow 1559: {36 43 0} {43 17 0} {17 35 0} {35 89 0} 
Flow 1597: {37 17 0} {17 49 0} {49 9 0} {9 40 0} {40 94 0} 
Flow 1612: {38 9 0} {9 5 0} {5 8 0} {8 62 0} 
Flow 1639: {38 49 0} {49 17 0} {17 37 0} {37 91 0} 
Flow 1659: {39 9 0} {9 63 0} 
Flow 1740: {41 43 0} {43 13 0} {13 49 0} {49 6 0} {6 60 0} 
Flow 1787: {42 43 0} {43 97 0} 
Flow 1870: {44 43 0} {43 36 0} {36 90 0} 
Flow 1904: {45 31 0} {31 23 0} {23 77 0} 
Flow 1955: {46 29 0} {29 50 0} {50 32 0} {32 86 0} 
Flow 1984: {47 14 0} {14 68 0} 
Flow 2046: {48 34 0} {34 31 0} {31 50 0} {50 104 0} 
Flow 2089: {43 42 0} {42 96 0} 
Flow 2104: {50 31 0} {31 4 0} {4 58 0} 
Flow 2121: {9 20 0} {20 21 0} {21 75 0} 
Flow 2155: {51 13 0} {13 67 0} 
Flow 2167: {14 29 0} {29 3 0} {3 57 0} 
Flow 2168: {52 14 0} {14 31 0} {31 49 0} {49 5 0} {5 59 0} 
Flow 2217: {25 13 0} {13 28 0} {28 16 0} 
Flow 2240: {53 49 0} {49 7 0} {7 39 0} {39 93 0} 
Flow 2245: {33 31 0} {31 45 0} {45 99 0} 
Flow 2258: {54 40 0} {40 9 0} {9 39 0} {39 7 0} {7 61 0} 
Flow 2288: {40 13 0} {13 51 0} {51 105 0} 
Time taken running everything: 12 seconds
