networks/zoo_108_2289/zoo_108_2289-lower.sol
<?xml version = "1.0" encoding="UTF-8" standalone="yes"?>
<CPLEXSolution version="1.2">
 <header
   problemName="networks/zoo_108_2289/zoo_108_2289-lower.lp"
   solutionName="incumbent"
   solutionIndex="-1"
   objectiveValue="54"
   solutionTypeValue="3"
   solutionTypeString="primal"
   solutionStatusValue="101"
   solutionStatusString="integer optimal solution"
   solutionMethodString="mip"
   primalFeasible="1"
   dualFeasible="1"
   MIPNodes="0"
   MIPIterations="0"
   writeLevel="3"/>
 <quality
   epInt="1.0000000000000001e-05"
   epRHS="9.9999999999999995e-07"
   maxIntInfeas="0"
   maxPrimalInfeas="0"
   maxX="1"
   maxSlack="1"/>
 <variables>
  <variable name="Y(1,2)" index="1" value="1"/>
  <variable name="Y(2,3)" index="110" value="1"/>
  <variable name="Y(3,4)" index="219" value="1"/>
  <variable name="Y(4,5)" index="328" value="1"/>
  <variable name="Y(5,6)" index="437" value="1"/>
  <variable name="Y(6,7)" index="546" value="1"/>
  <variable name="Y(7,8)" index="655" value="1"/>
  <variable name="Y(8,9)" index="764" value="1"/>
  <variable name="Y(9,10)" index="873" value="1"/>
  <variable name="Y(10,11)" index="982" value="1"/>
  <variable name="Y(11,12)" index="1091" value="1"/>
  <variable name="Y(12,13)" index="1200" value="1"/>
  <variable name="Y(13,14)" index="1309" value="1"/>
  <variable name="Y(14,15)" index="1418" value="1"/>
  <variable name="Y(15,16)" index="1527" value="1"/>
  <variable name="Y(16,17)" index="1636" value="1"/>
  <variable name="Y(17,19)" index="1746" value="1"/>
  <variable name="Y(18,20)" index="1855" value="1"/>
  <variable name="Y(19,21)" index="1964" value="1"/>
  <variable name="Y(20,22)" index="2073" value="1"/>
  <variable name="Y(21,23)" index="2182" value="1"/>
  <variable name="Y(22,24)" index="2291" value="1"/>
  <variable name="Y(23,25)" index="2400" value="1"/>
  <variable name="Y(24,26)" index="2509" value="1"/>
  <variable name="Y(25,27)" index="2618" value="1"/>
  <variable name="Y(26,28)" index="2727" value="1"/>
  <variable name="Y(27,29)" index="2836" value="1"/>
  <variable name="Y(28,31)" index="2946" value="1"/>
  <variable name="Y(29,32)" index="3055" value="1"/>
  <variable name="Y(30,33)" index="3164" value="1"/>
  <variable name="Y(31,34)" index="3273" value="1"/>
  <variable name="Y(32,35)" index="3382" value="1"/>
  <variable name="Y(33,36)" index="3491" value="1"/>
  <variable name="Y(34,37)" index="3600" value="1"/>
  <variable name="Y(35,38)" index="3709" value="1"/>
  <variable name="Y(36,39)" index="3818" value="1"/>
  <variable name="Y(37,40)" index="3927" value="1"/>
  <variable name="Y(38,41)" index="4036" value="1"/>
  <variable name="Y(39,43)" index="4146" value="1"/>
  <variable name="Y(40,45)" index="4256" value="1"/>
  <variable name="Y(41,46)" index="4365" value="1"/>
  <variable name="Y(42,47)" index="4474" value="1"/>
  <variable name="Y(43,48)" index="4583" value="1"/>
  <variable name="Y(44,49)" index="4692" value="1"/>
  <variable name="Y(45,50)" index="4801" value="1"/>
  <variable name="Y(46,51)" index="4910" value="1"/>
  <variable name="Y(47,53)" index="5020" value="1"/>
  <variable name="Y(48,54)" index="5129" value="1"/>
  <variable name="Y(49,1)" index="5184" value="1"/>
  <variable name="Y(113,18)" index="12113" value="1"/>
  <variable name="Y(125,30)" index="13421" value="1"/>
  <variable name="Y(138,44)" index="14839" value="1"/>
  <variable name="Y(412,42)" index="44429" value="1"/>
  <variable name="Y(422,52)" index="45519" value="1"/>
  <variable name="X(1,29,1)" index="247212" value="1"/>
  <variable name="X(1,55,49)" index="249549" value="1"/>
  <variable name="X(2,5,49)" index="251838" value="1"/>
  <variable name="X(2,56,1)" index="254079" value="1"/>
  <variable name="X(3,29,97)" index="256464" value="1"/>
  <variable name="X(3,57,2)" index="258658" value="1"/>
  <variable name="X(4,31,148)" index="261093" value="1"/>
  <variable name="X(4,58,3)" index="263237" value="1"/>
  <variable name="X(5,2,1)" index="265524" value="1"/>
  <variable name="X(5,8,7)" index="267819" value="1"/>
  <variable name="X(5,9,56)" index="270157" value="1"/>
  <variable name="X(5,49,49)" index="272439" value="1"/>
  <variable name="X(5,59,4)" index="274683" value="1"/>
  <variable name="X(6,49,245)" index="277213" value="1"/>
  <variable name="X(6,60,5)" index="279262" value="1"/>
  <variable name="X(7,39,181)" index="281727" value="1"/>
  <variable name="X(7,49,296)" index="284131" value="1"/>
  <variable name="X(7,61,6)" index="286130" value="1"/>
  <variable name="X(8,5,341)" index="288754" value="1"/>
  <variable name="X(8,62,7)" index="290709" value="1"/>
  <variable name="X(9,5,373)" index="293364" value="1"/>
  <variable name="X(9,10,9)" index="295289" value="1"/>
  <variable name="X(9,20,10)" index="297579" value="1"/>
  <variable name="X(9,38,83)" index="299941" value="1"/>
  <variable name="X(9,39,36)" index="302183" value="1"/>
  <variable name="X(9,40,85)" index="304521" value="1"/>
  <variable name="X(9,49,375)" index="307100" value="1"/>
  <variable name="X(9,63,8)" index="309022" value="1"/>
  <variable name="X(10,9,425)" index="311728" value="1"/>
  <variable name="X(10,64,9)" index="313601" value="1"/>
  <variable name="X(11,19,462)" index="316343" value="1"/>
  <variable name="X(11,65,10)" index="318180" value="1"/>
  <variable name="X(12,25,502)" index="320961" value="1"/>
  <variable name="X(12,66,11)" index="322759" value="1"/>
  <variable name="X(13,25,11)" index="325048" value="1"/>
  <variable name="X(13,28,62)" index="327388" value="1"/>
  <variable name="X(13,29,49)" index="329664" value="1"/>
  <variable name="X(13,40,8)" index="331912" value="1"/>
  <variable name="X(13,43,16)" index="334209" value="1"/>
  <variable name="X(13,49,1)" index="336483" value="1"/>
  <variable name="X(13,51,46)" index="338817" value="1"/>
  <variable name="X(13,67,12)" index="341072" value="1"/>
  <variable name="X(14,29,587)" index="343936" value="1"/>
  <variable name="X(14,30,125)" index="345763" value="1"/>
  <variable name="X(14,31,588)" index="348515" value="1"/>
  <variable name="X(14,47,42)" index="350258" value="1"/>
  <variable name="X(14,52,422)" index="352927" value="1"/>
  <variable name="X(14,68,13)" index="354807" value="1"/>
  <variable name="X(15,28,631)" index="357714" value="1"/>
  <variable name="X(15,69,14)" index="359386" value="1"/>
  <variable name="X(16,28,679)" index="362340" value="1"/>
  <variable name="X(16,50,651)" index="364601" value="1"/>
  <variable name="X(16,70,15)" index="366254" value="1"/>
  <variable name="X(17,20,726)" index="369254" value="1"/>
  <variable name="X(17,35,32)" index="370849" value="1"/>
  <variable name="X(17,37,34)" index="373140" value="1"/>
  <variable name="X(17,43,489)" index="375884" value="1"/>
  <variable name="X(17,49,716)" index="378400" value="1"/>
  <variable name="X(17,71,16)" index="379989" value="1"/>
  <variable name="X(18,20,768)" index="383030" value="1"/>
  <variable name="X(18,72,113)" index="384664" value="1"/>
  <variable name="X(19,11,10)" index="386850" value="1"/>
  <variable name="X(19,20,462)" index="389591" value="1"/>
  <variable name="X(19,73,17)" index="391435" value="1"/>
  <variable name="X(20,9,462)" index="394169" value="1"/>
  <variable name="X(20,17,473)" index="396469" value="1"/>
  <variable name="X(20,18,113)" index="398398" value="1"/>
  <variable name="X(20,19,10)" index="400584" value="1"/>
  <variable name="X(20,21,19)" index="402882" value="1"/>
  <variable name="X(20,22,20)" index="405172" value="1"/>
  <variable name="X(20,74,18)" index="407459" value="1"/>
  <variable name="X(21,20,910)" index="410640" value="1"/>
  <variable name="X(21,75,19)" index="412038" value="1"/>
  <variable name="X(22,20,938)" index="415246" value="1"/>
  <variable name="X(22,76,20)" index="416617" value="1"/>
  <variable name="X(23,31,975)" index="419861" value="1"/>
  <variable name="X(23,77,21)" index="421196" value="1"/>
  <variable name="X(24,31,1026)" index="424490" value="1"/>
  <variable name="X(24,78,22)" index="425775" value="1"/>
  <variable name="X(25,12,11)" index="428053" value="1"/>
  <variable name="X(25,13,502)" index="430833" value="1"/>
  <variable name="X(25,26,24)" index="432644" value="1"/>
  <variable name="X(25,53,523)" index="435432" value="1"/>
  <variable name="X(25,79,23)" index="437221" value="1"/>
  <variable name="X(26,25,1128)" index="440615" value="1"/>
  <variable name="X(26,80,24)" index="441800" value="1"/>
  <variable name="X(27,28,1160)" index="445225" value="1"/>
  <variable name="X(27,81,25)" index="446379" value="1"/>
  <variable name="X(28,13,632)" index="449275" value="1"/>
  <variable name="X(28,15,14)" index="450946" value="1"/>
  <variable name="X(28,16,15)" index="453236" value="1"/>
  <variable name="X(28,27,25)" index="455535" value="1"/>
  <variable name="X(28,29,631)" index="458430" value="1"/>
  <variable name="X(28,82,26)" index="460114" value="1"/>
  <variable name="X(29,1,49)" index="462426" value="1"/>
  <variable name="X(29,3,2)" index="464668" value="1"/>
  <variable name="X(29,13,1)" index="466956" value="1"/>
  <variable name="X(29,14,13)" index="469257" value="1"/>
  <variable name="X(29,28,14)" index="471547" value="1"/>
  <variable name="X(29,31,3)" index="473825" value="1"/>
  <variable name="X(29,46,41)" index="476152" value="1"/>
  <variable name="X(29,50,29)" index="478429" value="1"/>
  <variable name="X(29,83,27)" index="480716" value="1"/>
  <variable name="X(30,84,125)" index="483103" value="1"/>
  <variable name="X(31,4,3)" index="485270" value="1"/>
  <variable name="X(31,14,61)" index="487617" value="1"/>
  <variable name="X(31,23,21)" index="489866" value="1"/>
  <variable name="X(31,24,22)" index="492156" value="1"/>
  <variable name="X(31,29,148)" index="494571" value="1"/>
  <variable name="X(31,32,77)" index="496789" value="1"/>
  <variable name="X(31,33,30)" index="499031" value="1"/>
  <variable name="X(31,34,31)" index="501321" value="1"/>
  <variable name="X(31,45,40)" index="503619" value="1"/>
  <variable name="X(31,49,149)" index="506017" value="1"/>
  <variable name="X(31,50,93)" index="508250" value="1"/>
  <variable name="X(31,85,28)" index="510474" value="1"/>
  <variable name="X(32,31,1348)" index="514083" value="1"/>
  <variable name="X(32,50,1363)" index="516387" value="1"/>
  <variable name="X(32,86,29)" index="517342" value="1"/>
  <variable name="X(33,31,1396)" index="520998" value="1"/>
  <variable name="X(33,53,192)" index="522083" value="1"/>
  <variable name="X(33,87,30)" index="524210" value="1"/>
  <variable name="X(34,31,1443)" index="527912" value="1"/>
  <variable name="X(34,48,43)" index="528801" value="1"/>
  <variable name="X(34,53,1454)" index="532501" value="1"/>
  <variable name="X(34,88,31)" index="533367" value="1"/>
  <variable name="X(35,17,1491)" index="537116" value="1"/>
  <variable name="X(35,89,32)" index="537946" value="1"/>
  <variable name="X(36,43,1532)" index="541735" value="1"/>
  <variable name="X(36,90,33)" index="542525" value="1"/>
  <variable name="X(37,17,1573)" index="546354" value="1"/>
  <variable name="X(37,91,34)" index="547104" value="1"/>
  <variable name="X(38,9,1606)" index="550965" value="1"/>
  <variable name="X(38,49,1605)" index="553253" value="1"/>
  <variable name="X(38,92,35)" index="553972" value="1"/>
  <variable name="X(39,7,378)" index="556604" value="1"/>
  <variable name="X(39,9,1654)" index="560169" value="1"/>
  <variable name="X(39,93,36)" index="560840" value="1"/>
  <variable name="X(40,9,8)" index="563101" value="1"/>
  <variable name="X(40,13,372)" index="565754" value="1"/>
  <variable name="X(40,54,48)" index="567719" value="1"/>
  <variable name="X(40,94,37)" index="569997" value="1"/>
  <variable name="X(41,43,1735)" index="573984" value="1"/>
  <variable name="X(41,95,38)" index="574576" value="1"/>
  <variable name="X(42,43,1777)" index="578604" value="1"/>
  <variable name="X(42,96,412)" index="579528" value="1"/>
  <variable name="X(43,13,1532)" index="582937" value="1"/>
  <variable name="X(43,17,16)" index="583710" value="1"/>
  <variable name="X(43,36,33)" index="586016" value="1"/>
  <variable name="X(43,41,38)" index="588310" value="1"/>
  <variable name="X(43,42,412)" index="590973" value="1"/>
  <variable name="X(43,44,138)" index="592988" value="1"/>
  <variable name="X(43,97,39)" index="595178" value="1"/>
  <variable name="X(44,43,1843)" index="599271" value="1"/>
  <variable name="X(44,98,138)" index="599855" value="1"/>
  <variable name="X(45,31,1883)" index="603889" value="1"/>
  <variable name="X(45,99,40)" index="604335" value="1"/>
  <variable name="X(46,29,1931)" index="608515" value="1"/>
  <variable name="X(46,100,41)" index="608914" value="1"/>
  <variable name="X(47,14,1972)" index="613134" value="1"/>
  <variable name="X(47,101,42)" index="613493" value="1"/>
  <variable name="X(48,34,2018)" index="617758" value="1"/>
  <variable name="X(48,102,43)" index="618072" value="1"/>
  <variable name="X(49,5,1)" index="620319" value="1"/>
  <variable name="X(49,6,5)" index="622612" value="1"/>
  <variable name="X(49,7,6)" index="624902" value="1"/>
  <variable name="X(49,9,155)" index="627340" value="1"/>
  <variable name="X(49,13,49)" index="629523" value="1"/>
  <variable name="X(49,17,64)" index="631827" value="1"/>
  <variable name="X(49,31,51)" index="634103" value="1"/>
  <variable name="X(49,38,35)" index="636376" value="1"/>
  <variable name="X(49,53,47)" index="638677" value="1"/>
  <variable name="X(49,103,44)" index="640963" value="1"/>
  <variable name="X(50,16,161)" index="643369" value="1"/>
  <variable name="X(50,29,668)" index="646165" value="1"/>
  <variable name="X(50,31,669)" index="648455" value="1"/>
  <variable name="X(50,32,29)" index="650104" value="1"/>
  <variable name="X(50,104,45)" index="652409" value="1"/>
  <variable name="X(51,13,2154)" index="656807" value="1"/>
  <variable name="X(51,105,46)" index="656988" value="1"/>
  <variable name="X(52,14,2165)" index="661396" value="1"/>
  <variable name="X(52,106,422)" index="661942" value="1"/>
  <variable name="X(53,25,1407)" index="665216" value="1"/>
  <variable name="X(53,33,523)" index="666621" value="1"/>
  <variable name="X(53,34,524)" index="668911" value="1"/>
  <variable name="X(53,49,2203)" index="672879" value="1"/>
  <variable name="X(53,107,47)" index="673012" value="1"/>
  <variable name="X(54,40,2253)" index="677507" value="1"/>
  <variable name="X(54,108,48)" index="677591" value="1"/>
 </variables>
</CPLEXSolution>
